solverbin/ReDoSHunter4Symbolic/output/3_2_0_0.smt2
(set-logic QF_S)
(declare-const x String)
(assert (str.in.re x (re.inter  (re.++ (re.* (re.union (re.range "\u{09}" "\u{0d}") (re.range "\u{20}" "\u{20}") (re.range "\u{85}" "\u{85}") (re.range "\u{a0}" "\u{a0}") (re.range "\u{1680}" "\u{1680}") (re.range "\u{2000}" "\u{200a}") (re.range "\u{2028}" "\u{2029}") (re.range "\u{202f}" "\u{202f}") (re.range "\u{205f}" "\u{205f}") (re.range "\u{3000}" "\u{3000}")) ) (re.* (re.union (re.range "\u{09}" "\u{0d}") (re.range "\u{20}" "\u{20}") (re.range "\u{85}" "\u{85}") (re.range "\u{a0}" "\u{a0}") (re.range "\u{1680}" "\u{1680}") (re.range "\u{2000}" "\u{200a}") (re.range "\u{2028}" "\u{2029}") (re.range "\u{202f}" "\u{202f}") (re.range "\u{205f}" "\u{205f}") (re.range "\u{3000}" "\u{3000}")) ))  (re.++ (re.* (re.union (re.range "\u{09}" "\u{0d}") (re.range "\u{20}" "\u{20}") (re.range "\u{85}" "\u{85}") (re.range "\u{a0}" "\u{a0}") (re.range "\u{1680}" "\u{1680}") (re.range "\u{2000}" "\u{200a}") (re.range "\u{2028}" "\u{2029}") (re.range "\u{202f}" "\u{202f}") (re.range "\u{205f}" "\u{205f}") (re.range "\u{3000}" "\u{3000}")) ) (re.++  (str.to.re "\u{6e}") (re.* (re.union (re.range "\u{09}" "\u{0d}") (re.range "\u{20}" "\u{20}") (re.range "\u{85}" "\u{85}") (re.range "\u{a0}" "\u{a0}") (re.range "\u{1680}" "\u{1680}") (re.range "\u{2000}" "\u{200a}") (re.range "\u{2028}" "\u{2029}") (re.range "\u{202f}" "\u{202f}") (re.range "\u{205f}" "\u{205f}") (re.range "\u{3000}" "\u{3000}")) ))) )))
(check-sat)
(get-model)