solverbin/ReDoSHunter4Symbolic/output/3_2_0_0.txt
(\s*)(\s*)
(\s*)(\n)(\s*)